%nprocshared=1
#p opt(calcfc,noeigen,nomicro,ts) external='./xtb.sh'

test1

0 1
 Rh                -0.13464000   -0.20188700   -0.40594900
 H                 -0.41012600   -1.77695600   -0.55699700
 H                 -0.17873200   -0.14157900   -1.96737000
 P                  2.10535500   -0.72151400   -0.37939600
 H                  3.00866800    0.24504700    0.13732900
 H                  2.49076000   -1.81637400    0.43018700
 H                  2.82840000   -1.05582200   -1.55639000
 P                  0.10594400    2.10573800   -0.15710700
 H                  0.00719500    3.02266400   -1.24008500
 H                 -0.78980200    2.74052700    0.73752100
 H                  1.32189900    2.58752600    0.39503000
 Cl                 0.00029800   -0.24202100    2.07885200
 C                 -2.02101000   -1.39237800   -0.37564400
 H                 -2.24739000   -1.94348000   -1.29221300
 H                 -2.06463600   -1.97503700    0.54866800
 C                 -2.29109600   -0.00584200   -0.31267500
 H                 -2.51839600    0.43423700    0.66117900
 H                 -2.69096000    0.50449300   -1.19219200

