%chk=test2.chk
%nprocshared=1
%mem=8GB
# opt=(ts,calcfc,noeigen,nomicro,maxcycle=1000) external='./xtb.sh'

test2

0 1
 C               -1    2.58132900   -1.66383200   -0.84827400
 C                0    2.46429000   -2.24088100   -2.25991600
 H                0    2.08137900   -1.49977300   -2.96303100
 H                0    3.06943000   -2.42115600   -0.22184900
 H                0    3.44163500   -2.57225200   -2.61983000
 H                0    1.80236100   -3.10626900   -2.26876400
 Rh              -1    0.58409500   -0.30156000   -0.52900800
 C               -1    0.88384900   -2.00519100    0.09458900
 O                0    0.78426700   -3.08182300    0.54218100
 P                0   -1.69335700   -0.57597700   -0.45766200
 C                0    0.73582300    1.19539300   -1.63984500
 O                0    0.89165300    1.98444200   -2.46928600
 C                0    3.49113900   -0.41785800   -0.79957400
 H                0    3.30060600    0.21740900   -1.67065100
 H                0    3.30583500    0.17756300    0.09990100
 C                0    4.97649600   -0.80506000   -0.79924400
 H                0    5.20769200   -1.38711800   -1.69363100
 H                0    5.18859200   -1.43544500    0.06868900
 C                0    5.87833700    0.42612500   -0.75890100
 H                0    5.66441400    1.05758900   -1.62474800
 H                0    5.65320600    1.01026200    0.13732200
 C                0    7.35920800    0.05520300   -0.76049600
 H                0    7.57508500   -0.57419000    0.10655000
 H                0    7.58371200   -0.52986400   -1.65578400
 C                0    8.26174800    1.28605300   -0.72553100
 H                0    8.03829100    1.87126900    0.16971200
 H                0    8.04641700    1.91483700   -1.59264200
 C                0    9.73789900    0.90855700   -0.72834100
 H                0    9.98447700    0.34077200   -1.62306700
 H                0   10.36232600    1.79880900   -0.70406600
 H                0    9.97707800    0.29780200    0.13976700
 C                0   -2.25854700    3.56330300    0.91715100
 C                0   -1.56619500    4.35041600    0.00407400
 C                0   -0.20822600    4.08644800   -0.15212700
 C                0    0.37659100    3.06463700    0.57009400
 C                0   -0.41981600    2.32278100    1.44382300
 N                0   -1.71201400    2.58992000    1.61979300
 H                0    0.38156200    4.67909700   -0.83768200
 H                0   -3.31660500    3.72048600    1.08932600
 H                0    1.43078900    2.84681000    0.48883500
 C                0    0.15113900    1.23258700    2.25140600
 C                0   -0.32566800    0.99761800    3.53766100
 C                0    1.68901900   -0.44210100    2.46739800
 C                0    0.22020200   -0.02733600    4.28623100
 H                0   -1.11538400    1.62138600    3.92425600
 C                0    1.25810800   -0.77663700    3.74680900
 H                0    2.52834600   -0.97324900    2.03525600
 H                0   -0.14744100   -0.23948800    5.27993100
 C                0    1.88802700   -1.91481500    4.48251500
 H                0    2.97369100   -1.85264200    4.43513800
 H                0    1.57729100   -1.92568900    5.52417000
 H                0    1.58760100   -2.85575800    4.02150100
 C                0   -2.23918700    5.45231200   -0.74897700
 H                0   -1.86625000    5.50106400   -1.76978200
 H                0   -3.31580000    5.30324400   -0.76891200
 H                0   -2.03333800    6.41086300   -0.27100600
 N                0    1.14880400    0.51363100    1.71639500
 C                0   -2.94700600    0.71454800   -0.81122500
 C                0   -2.64577600    1.60752900   -1.83356500
 C                0   -4.19515300    0.78051000   -0.20299000
 C                0   -3.56315500    2.55978500   -2.23383800
 H                0   -1.68118300    1.54377500   -2.31663600
 C                0   -5.10908100    1.74165000   -0.59753500
 H                0   -4.45787900    0.08825600    0.58314400
 C                0   -4.79742700    2.63316100   -1.60988600
 H                0   -3.31739700    3.24396300   -3.03285300
 H                0   -6.07447500    1.79046900   -0.11399000
 H                0   -5.51720900    3.37879300   -1.91591300
 C                0   -2.29103300   -1.78442700   -1.69671400
 C                0   -3.58654700   -2.29016200   -1.66217100
 C                0   -1.42947300   -2.17429100   -2.71304200
 C                0   -4.00113500   -3.18992600   -2.62590900
 H                0   -4.26345200   -1.98301000   -0.87734600
 C                0   -1.84749800   -3.07207900   -3.67901600
 H                0   -0.42379300   -1.76393300   -2.72488600
 C                0   -3.13357700   -3.58307000   -3.63358700
 H                0   -5.00493700   -3.58843300   -2.59295800
 H                0   -1.17107500   -3.37553400   -4.46490700
 H                0   -3.46242200   -4.28840200   -4.38277500
 C                0   -2.27088700   -1.32284300    1.09788900
 C                0   -2.61952100   -0.51624600    2.17851900
 C                0   -2.21717200   -2.70473000    1.26315900
 C                0   -2.94221400   -1.09115300    3.39455200
 H                0   -2.63090400    0.55880000    2.06008400
 C                0   -2.53025600   -3.27071100    2.48465600
 H                0   -1.92615900   -3.33315100    0.43331700
 C                0   -2.89723500   -2.46644600    3.55148900
 H                0   -3.22512300   -0.46164800    4.22618300
 H                0   -2.48454600   -4.34329500    2.60598600
 H                0   -3.14376800   -2.91189400    4.50462300

--Link1--
%chk=test2.chk
%nprocshared=1
%mem=8GB
%nosave
#P freq geom=allcheck external='./xtb.sh'

