%nprocshared=1
#p opt=(calcfc,ts,noeigen,nomicro) external='xtbint'

test1

0 1
 C                 -1.58357723   -1.65355465    0.00270141
 H                 -1.22692281   -2.66236465    0.00270141
 H                 -1.22690439   -1.14915646   -0.87095010
 H                 -2.65357723   -1.65354146    0.00270141
 C                 -1.07023501   -0.92759837    1.26010638
 H                 -0.00023501   -0.92761170    1.26010612
 H                 -1.42688965    0.08121155    1.26010651
 C                 -1.58357702   -1.65355532    2.51751104
 H                 -1.22690251   -1.14915777    3.39116224
 H                 -1.22692405   -2.66236584    2.51751017
 C                 -3.12357702   -1.65353448    2.51751189
 H                 -3.48025482   -2.47619181    1.93363189
 H                 -3.48023169   -0.73654370    2.09700582
 C                 -3.63691093   -1.78928320    3.96307773
 H                 -4.70442497   -1.86193648    3.95713710
 H                 -3.22197286   -2.66963432    4.40772175
 C                 -3.21102312   -0.55341812    4.77723808
 H                 -2.20764617   -0.68398804    5.12521249
 H                 -3.26313585    0.31726227    4.15748013
 C                 -4.15424475   -0.38275925    5.98256315
 H                 -3.81647789    0.43293867    6.58708812
 H                 -5.14568499   -0.18172087    5.63395187
 C                 -4.15666509   -1.67544054    6.81956328
 H                 -4.50417391   -1.45952304    7.80825800
 H                 -4.80410803   -2.39470322    6.36307796
 H                 -3.16339497   -2.07025668    6.86890566

