%nprocshared=1
%chk=test2.chk
#P opt(ts,calcfc,noeigen,nomicro) external='xtbint'

test2

0 1
 C                  1.22455465   -0.81097504   -4.35394798
 O                  1.58340065   -0.79840304   -2.99153698
 C                  2.15566265    0.34620596   -2.50683898
 C                  1.98907265    1.60006496   -3.08611698
 C                  2.67163365    2.68441296   -2.57159698
 C                  3.56391765    2.53809396   -1.52614498
 C                  3.73762065    1.28670496   -0.94570498
 O                  4.63872165    1.00794396    0.04385402
 C                  5.45057065    2.05028796    0.52528402
 C                  2.98393965    0.19657896   -1.39266998
 C                  3.16296765   -1.13093004   -0.75912098
 C                  2.38306265   -1.54521904    0.31622302
 P                  1.00059965   -0.71486704    1.16272502
 C                  1.86062365    0.33033696    2.49270502
 C                  0.95263865    0.38030096    3.72881302
 C                  3.24431965   -0.19738404    2.86128702
 C                  1.96235765    1.74102396    1.91380202
 C                  0.74550265   -2.29974004    2.14961402
 C                 -0.60395735   -2.99476704    1.84116602
 C                 -0.86813135   -4.04301704    2.92638002
 C                 -0.53580535   -3.65820704    0.46621302
 O                 -1.56028135   -1.93007404    1.85986202
 C                 -2.91830435   -2.29984804    1.96964702
 O                  1.82118865   -3.19238604    1.91428302
 C                  2.60317065   -2.80980004    0.87590402
 C                  3.59818565   -3.64657904    0.39694002
 C                  4.37145065   -3.21797404   -0.66743598
 C                  4.15409865   -1.97874904   -1.24211598
 H                  1.98715665   -0.32569704   -4.97031498
 H                  1.15092265   -1.85987404   -4.63931098
 H                  0.25677165   -0.32972704   -4.53037598
 H                  1.33370065    1.73619796   -3.93061498
 H                  2.52632865    3.65991396   -3.00998598
 H                  4.11441665    3.39533296   -1.17483198
 H                  4.85528665    2.84621696    0.98395702
 H                  6.08898365    1.59764096    1.28251902
 H                  6.07519865    2.47239196   -0.26852598
 H                  1.18317465   -0.41717304    4.43262702
 H                 -0.09473435    0.29666196    3.43101702
 H                  1.08450965    1.32804096    4.24807702
 H                  3.19766165   -1.23196804    3.19797302
 H                  3.66206565    0.40323596    3.66929502
 H                  3.91576865   -0.14419904    2.00758002
 H                  0.96695665    2.14825996    1.74760202
 H                  2.47733065    1.72970096    0.95883402
 H                  2.49730165    2.39917196    2.59822902
 H                  0.74270365   -2.06762404    3.22004902
 H                  0.01748865   -4.66529504    3.02421202
 H                 -1.06114635   -3.56121104    3.88294902
 H                 -1.71242535   -4.67709104    2.66650302
 H                 -1.51418035   -4.02094504    0.15829402
 H                 -0.18354635   -2.93195504   -0.26728398
 H                  0.15598665   -4.49568404    0.49244102
 H                 -3.14255235   -2.71081704    2.95958102
 H                 -3.21417435   -3.02036304    1.20137102
 H                 -3.49279235   -1.38482904    1.82566102
 H                  3.75172165   -4.61000304    0.85713302
 H                  5.14909665   -3.86057804   -1.05304698
 H                  4.76048565   -1.65325404   -2.07424798
 C                 -3.98880805    0.94414257    0.08885157
 C                 -2.73629105    0.56061857   -0.34574043
 C                 -2.56452305   -0.61421143   -1.12212143
 C                 -3.67975105   -1.46926143   -1.36011143
 C                 -4.93367005   -1.09712743   -0.84143743
 C                 -5.07598305    0.07930557   -0.16372143
 H                 -0.46657405   -0.28585643   -1.51969043
 C                 -1.31627405   -0.96338143   -1.69968043
 C                 -3.49861705   -2.64896643   -2.11275643
 H                 -5.78486405   -1.74180243   -1.00979343
 H                 -6.05309105    0.37377757    0.19492257
 C                 -2.27422205   -2.97278243   -2.62574943
 C                 -1.17906805   -2.11902143   -2.42558443
 H                 -4.35436905   -3.28934343   -2.27818643
 H                 -2.14368605   -3.88036043   -3.19806043
 H                 -0.21687905   -2.38484843   -2.83689743
 C                 -4.30756305    2.24271257    0.77501057
 H                 -5.36223605    2.47754357    0.64231457
 H                 -4.10900805    2.18870357    1.84513557
 H                 -3.71588105    3.05849057    0.36637157
 C                 -1.23653405    2.74593457   -1.63191143
 C                 -1.37899805    2.17187757   -0.38710643
 C                 -1.23479505    2.94269257    0.79789557
 C                 -0.81635005    4.29919357    0.69329057
 C                 -0.57761605    4.83578057   -0.58707043
 C                 -0.80346505    4.08547457   -1.70508743
 H                 -1.87979705    1.39604957    2.17776257
 C                 -1.52708205    2.42942057    2.08802757
 C                 -0.66484805    5.06581757    1.86792457
 H                 -0.24355405    5.86014057   -0.67061443
 H                 -0.66143205    4.52498957   -2.68311443
 C                 -0.94834205    4.53720557    3.09511457
 C                 -1.39496305    3.21114057    3.20328457
 H                 -0.32835205    6.08893757    1.77391057
 H                 -0.83796705    5.13586557    3.98783757
 H                 -1.62977705    2.81111157    4.17952957
 C                 -1.59104705    2.04013657   -2.91014043
 H                 -2.58533105    1.59926557   -2.83624343
 H                 -1.58185805    2.74009057   -3.74337043
 H                 -0.89060805    1.23676557   -3.12660843
 Pd                -0.72652205    0.28725457    0.36782657

--Link1--
%chk=test2.chk
%nprocshared=1
%nosave
#P freq geom=allcheck external='xtbint'

